\ENCODING=ISO-8859-1
\Problem name: IloCplex

Minimize
 obj: 250 x(0)(0)(0)._#3 + 250 x(0)(0)(1)._#4 + 250 x(1)(0)(0)._#5
      + 1750 t(0)(0)(0)._#7 + x9#8
Subject To
 c1:  x(0)(0)(0)._#3 + x(0)(0)(1)._#4  = 1
 c2:  x(1)(0)(0)._#5  = 1
 c3:  t(0)(0)(0)._#7  = 1
 c4:  x(0)(0)(0)._#3 <= 1
 c5:  <= 1
 c6:  <= 1
 c7:  <= 1
 c8:  <= 1
 c9:  <= 1
 c10: t(0)(0)(0)._#7 <= 1
 c11: <= 1
 c12: <= 1
 c13: - y(0)(0)._#0 + x(0)(0)(0)._#3  = 0
 c14: - y(0)(1)._#1 + x(0)(0)(1)._#4  = 0
 c15: - y(1)(0)._#2 + x(1)(0)(0)._#5  = 0
 c16: - u(0)(0)._#6 + t(0)(0)(0)._#7  = 0
Bounds
 0 <= y(0)(0)._#0 <= 1
 0 <= y(0)(1)._#1 <= 1
 0 <= y(1)(0)._#2 <= 1
 0 <= x(0)(0)(0)._#3 <= 1
 0 <= x(0)(0)(1)._#4 <= 1
 0 <= x(1)(0)(0)._#5 <= 1
 0 <= u(0)(0)._#6 <= 1
 0 <= t(0)(0)(0)._#7 <= 1
      x9#8 = 0
Binaries
 y(0)(0)._#0  y(0)(1)._#1  y(1)(0)._#2  x(0)(0)(0)._#3  x(0)(0)(1)._#4 
 x(1)(0)(0)._#5  u(0)(0)._#6  t(0)(0)(0)._#7 
End
